// Dezyne --- Dezyne command line tools
//
// Copyright © 2023 Rutger van Beusekom <rutger@dezyne.org>
//
// This file is part of Dezyne.
//
// Dezyne is free software: you can redistribute it and/or modify it
// under the terms of the GNU Affero General Public License as
// published by the Free Software Foundation, either version 3 of the
// License, or (at your option) any later version.
//
// Dezyne is distributed in the hope that it will be useful, but
// WITHOUT ANY WARRANTY; without even the implied warranty of
// MERCHANTABILITY or FITNESS FOR A PARTICULAR PURPOSE.  See the GNU
// Affero General Public License for more details.
//
// You should have received a copy of the GNU Affero General Public
// License along with Dezyne.  If not, see <http://www.gnu.org/licenses/>.
//
// Commentary:
//
// This model demonstrates an integer range, as well as the effect of an
// interface constraint on the behavior of a component.
//
// Code:

interface icount
{
  in void up();
  in void down();

  behavior
  {
    subint Range {0..10};
    Range i = 5;
    [i < 10] on up: i = i + 1;
    [0 < i] on down: i = i - 1;
  }
}

component range
{
  provides icount count;

  behavior
  {
    on count.up(): {}
    on count.down(): {}
  }
}
